25 350
  0     40.0     50.0       0.0     3390.0      0.0       0.0       0.0  
  1     52.0     75.0       0.0     3272.0     90.0       2.0      10.0  
  2     45.0     70.0       0.0     3279.0     90.0       3.0      30.0  
  3     62.0     69.0       0.0     3270.0     90.0      10.0      10.0  
  4     60.0     66.0     1261.0    1421.0     90.0       7.0      10.0  
  5     42.0     65.0       0.0     3284.0     90.0       7.0      10.0  
  6     16.0     42.0      497.0     657.0     90.0       4.0      20.0  
  7     58.0     70.0       0.0     3273.0     90.0      12.0      20.0  
  8     34.0     60.0     2887.0    3047.0     90.0       6.0      20.0  
  9     28.0     70.0     2601.0    2761.0     90.0       6.0      10.0  
 10     35.0     66.0     2791.0    2951.0     90.0       8.0      10.0  
 11     35.0     69.0     2698.0    2858.0     90.0       7.0      10.0  
 12     25.0     85.0       0.0     3261.0     90.0      17.0      20.0  
 13     22.0     75.0     2405.0    2565.0     90.0      13.0      30.0  
 14     22.0     85.0       0.0     3260.0     90.0       2.0      10.0  
 15     20.0     80.0     2216.0    2376.0     90.0       3.0      40.0  
 16     20.0     85.0       0.0     3259.0     90.0      33.0      40.0  
 17     18.0     75.0     2311.0    2471.0     90.0       2.0      20.0  
 18     15.0     75.0       0.0     3264.0     90.0      19.0      20.0  
 19     15.0     80.0       0.0     3260.0     90.0       3.0      10.0  
 20     30.0     50.0       0.0     3290.0     90.0       9.0      10.0  
 21     30.0     56.0       0.0     3288.0     90.0       1.0      20.0  
 22     28.0     52.0      22.0      182.0     90.0      10.0      20.0  
 23     14.0     66.0     1643.0    1803.0     90.0      10.0      10.0  
 24     25.0     50.0       0.0     3285.0     90.0       7.0      10.0  
 25     22.0     66.0     2504.0    2664.0     90.0       0.0      40.0  
 26      8.0     62.0       0.0     3265.0     90.0       8.0      10.0  
 27     23.0     52.0      209.0     369.0     90.0       5.0      10.0  
 28      4.0     55.0       0.0     3263.0     90.0      19.0      20.0  
 29     20.0     50.0       0.0     3280.0     90.0       1.0      10.0  
 30     20.0     55.0      303.0     463.0     90.0       6.0      10.0  
 31     10.0     35.0       0.0     3266.0     90.0       5.0      20.0  
 32     10.0     40.0       0.0     3268.0     90.0       8.0      30.0  
 33      8.0     40.0      685.0     845.0     90.0      21.0      40.0  
 34      8.0     45.0       0.0     3267.0     90.0       5.0      20.0  
 35      5.0     35.0      876.0    1036.0     90.0       5.0      10.0  
 36      5.0     45.0     1253.0    1413.0     90.0       3.0      10.0  
 37      2.0     40.0       0.0     3260.0     90.0       8.0      20.0  
 38      0.0     40.0     1063.0    1223.0     90.0      16.0      30.0  
 39      0.0     45.0     1158.0    1318.0     90.0      18.0      20.0  
 40     36.0     18.0     1819.0    1979.0     90.0       1.0      10.0  
 41     35.0     32.0     2758.0    2918.0     90.0       4.0      10.0  
 42     33.0     32.0     2666.0    2826.0     90.0      15.0      20.0  
 43     33.0     35.0       0.0     3283.0     90.0       2.0      10.0  
 44     32.0     20.0     1913.0    2073.0     90.0       0.0      10.0  
 45     30.0     30.0     2105.0    2265.0     90.0       4.0      10.0  
 46     34.0     25.0       0.0     3274.0     90.0      21.0      30.0  
 47     30.0     35.0       0.0     3281.0     90.0       7.0      10.0  
 48     36.0     40.0       0.0     3289.0     90.0       0.0      10.0  
 49     48.0     20.0      967.0    1127.0     90.0       8.0      10.0  
 50     26.0     32.0       0.0     3277.0     90.0       5.0      10.0  
 51     25.0     30.0       0.0     3275.0     90.0       1.0      10.0  
 52     25.0     35.0       0.0     3278.0     90.0       6.0      10.0  
 53     44.0      5.0     1256.0    1416.0     90.0      18.0      20.0  
 54     42.0     10.0       0.0     3259.0     90.0      24.0      40.0  
 55     42.0     15.0     1065.0    1225.0     90.0       8.0      10.0  
 56     40.0      5.0     1350.0    1510.0     90.0       2.0      30.0  
 57     38.0     15.0       0.0     3264.0     90.0      33.0      40.0  
 58     38.0      5.0     1442.0    1602.0     90.0      28.0      30.0  
 59     38.0     10.0       0.0     3259.0     90.0       4.0      10.0  
 60     35.0      5.0       0.0     3254.0     90.0      10.0      20.0  
 61     50.0     30.0       0.0     3277.0     90.0       8.0      10.0  
 62     50.0     35.0      120.0     280.0     90.0      11.0      20.0  
 63     50.0     40.0       0.0     3285.0     90.0      20.0      50.0  
 64     48.0     30.0      493.0     653.0     90.0       3.0      10.0  
 65     44.0     25.0      871.0    1031.0     90.0       4.0      10.0  
 66     47.0     35.0      588.0     748.0     90.0       1.0      10.0  
 67     47.0     40.0      12.0      172.0     90.0       4.0      10.0  
 68     42.0     30.0      776.0     936.0     90.0       9.0      10.0  
 69     45.0     35.0      680.0     840.0     90.0       3.0      10.0  
 70     95.0     30.0     2321.0    2481.0     90.0      24.0      30.0  
 71     95.0     35.0       0.0     3242.0     90.0       6.0      20.0  
 72     53.0     30.0       0.0     3276.0     90.0       3.0      10.0  
 73     92.0     30.0       0.0     3244.0     90.0       8.0      10.0  
 74     53.0     35.0      213.0     373.0     90.0       4.0      50.0  
 75     45.0     65.0       0.0     3284.0     90.0       3.0      20.0  
 76     90.0     35.0     2131.0    2291.0     90.0       4.0      10.0  
 77     72.0     45.0     2900.0    3060.0     90.0       2.0      10.0  
 78     78.0     40.0     2802.0    2962.0     90.0       1.0      20.0  
 79     87.0     30.0     2608.0    2768.0     90.0       5.0      10.0  
 80     85.0     25.0     2513.0    2673.0     90.0       3.0      10.0  
 81     85.0     35.0       0.0     3252.0     90.0      14.0      30.0  
 82     75.0     55.0       0.0     3264.0     90.0      14.0      20.0  
 83     72.0     55.0       0.0     3267.0     90.0       3.0      10.0  
 84     70.0     58.0     1641.0    1801.0     90.0      19.0      20.0  
 85     86.0     46.0       0.0     3253.0     90.0      11.0      30.0  
 86     66.0     55.0       0.0     3273.0     90.0       8.0      10.0  
 87     64.0     46.0     3097.0    3257.0     90.0      19.0      20.0  
 88     65.0     60.0     1546.0    1706.0     90.0      18.0      30.0  
 89     56.0     64.0       0.0     3278.0     90.0       3.0      10.0  
 90     60.0     55.0       0.0     3279.0     90.0       3.0      10.0  
 91     60.0     60.0       0.0     3277.0     90.0       5.0      10.0  
 92     67.0     85.0      694.0     854.0     90.0      16.0      20.0  
 93     42.0     58.0       8.0      168.0     90.0      39.0      40.0  
 94     65.0     82.0       0.0     3259.0     90.0       6.0      10.0  
 95     62.0     80.0       0.0     3262.0     90.0      17.0      30.0  
 96     62.0     40.0       0.0     3275.0     90.0       3.0      10.0  
 97     60.0     85.0       0.0     3259.0     90.0      12.0      30.0  
 98     58.0     75.0       0.0     3269.0     90.0       7.0      20.0  
 99     55.0     80.0      407.0     567.0     90.0       5.0      10.0  
 100    55.0     85.0      502.0     662.0     90.0      20.0      20.0  
